(set-logic QF_NRA)
(set-info :source |Benchmarks generated from hycomp (https://es-static.fbk.eu/tools/hycomp/). BMC instances of non-linear hybrid automata taken from: Alessandro Cimatti, Sergio Mover, Stefano Tonetta, A quantifier-free SMT encoding of non-linear hybrid automata, FMCAD 2012 and Alessandro Cimatti, Sergio Mover, Stefano Tonetta, Quantier-free encoding of invariants for Hybrid Systems, Formal Methods in System Design. This instance solves a BMC problem of depth 2 and uses the quantifier free encoding with equivalences and lemmas encoding. Contacts: Sergio Mover (mover@fbk.eu), Stefano Tonetta (tonettas@fbk.eu), Alessandro Cimatti (cimatti@fbk.eu).|)
(set-info :smt-lib-version 2.0)
(set-info :category "industrial")
(set-info :status unsat)
;; MathSAT API call trace
;; generated on Mon Mar 19 10:43:39 2012
(declare-fun b.time__AT1 () Real)
(declare-fun g__AT0 () Real)
(declare-fun b.y__AT0 () Real)
(declare-fun b.speed_y__AT2 () Real)
(declare-fun b.EVENT.0__AT1 () Bool)
(declare-fun b.speed_y__AT1 () Real)
(declare-fun b.delta__AT1 () Real)
(declare-fun b.counter.0__AT0 () Bool)
(declare-fun b.EVENT.1__AT1 () Bool)
(declare-fun b.delta__AT0 () Real)
(declare-fun b.counter.1__AT0 () Bool)
(declare-fun b.EVENT.0__AT0 () Bool)
(declare-fun b.x__AT1 () Real)
(declare-fun b.speed_y__AT0 () Real)
(declare-fun b.event_is_timed__AT2 () Bool)
(declare-fun b.counter.3__AT0 () Bool)
(declare-fun b.event_is_timed__AT0 () Bool)
(declare-fun speed_loss__AT0 () Real)
(declare-fun b.time__AT2 () Real)
(declare-fun b.y__AT2 () Real)
(declare-fun b.y__AT1 () Real)
(declare-fun b.delta__AT2 () Real)
(declare-fun b.event_is_timed__AT1 () Bool)
(declare-fun b.counter.0__AT2 () Bool)
(declare-fun b.counter.0__AT1 () Bool)
(declare-fun b.speed_x__AT0 () Real)
(declare-fun b.x__AT2 () Real)
(declare-fun b.EVENT.0__AT2 () Bool)
(declare-fun b.counter.1__AT2 () Bool)
(declare-fun b.counter.1__AT1 () Bool)
(declare-fun b.time__AT0 () Real)
(declare-fun b.EVENT.1__AT2 () Bool)
(declare-fun b.counter.2__AT0 () Bool)
(declare-fun b.counter.2__AT2 () Bool)
(declare-fun b.counter.2__AT1 () Bool)
(declare-fun b.counter.3__AT2 () Bool)
(declare-fun b.counter.3__AT1 () Bool)
(declare-fun b.EVENT.1__AT0 () Bool)
(declare-fun b.x__AT0 () Real)
(declare-fun b.speed_x__AT2 () Real)
(declare-fun b.speed_x__AT1 () Real)
(assert (let ((.def_72 (* (- 1.0) g__AT0)))
(let ((.def_73 (* (/ 1 2) .def_72)))
(let ((.def_80 (* 2.0 .def_73)))
(let ((.def_507 (* .def_80 b.delta__AT2)))
(let ((.def_508 (+ b.speed_y__AT2 .def_507)))
(let ((.def_525 (<= .def_508 0.0 )))
(let ((.def_526 (not .def_525)))
(let ((.def_523 (<= b.speed_y__AT2 0.0 )))
(let ((.def_546 (or .def_523 .def_526)))
(let ((.def_511 (<= 0.0 b.speed_y__AT2)))
(let ((.def_512 (not .def_511)))
(let ((.def_509 (<= 0.0 .def_508)))
(let ((.def_545 (or .def_509 .def_512)))
(let ((.def_547 (and .def_545 .def_546)))
(let ((.def_120 (<= 0.0 g__AT0)))
(let ((.def_548 (or .def_120 .def_547)))
(let ((.def_510 (not .def_509)))
(let ((.def_542 (or .def_510 .def_511)))
(let ((.def_524 (not .def_523)))
(let ((.def_541 (or .def_524 .def_525)))
(let ((.def_543 (and .def_541 .def_542)))
(let ((.def_115 (<= g__AT0 0.0 )))
(let ((.def_544 (or .def_115 .def_543)))
(let ((.def_549 (and .def_544 .def_548)))
(let ((.def_538 (and .def_523 .def_525)))
(let ((.def_537 (and .def_509 .def_511)))
(let ((.def_539 (or .def_537 .def_538)))
(let ((.def_502 (* b.speed_y__AT2 b.delta__AT2)))
(let ((.def_500 (* b.delta__AT2 b.delta__AT2)))
(let ((.def_501 (* .def_73 .def_500)))
(let ((.def_503 (+ .def_501 .def_502)))
(let ((.def_504 (+ b.y__AT2 .def_503)))
(let ((.def_517 (<= .def_504 0.0 )))
(let ((.def_531 (not .def_517)))
(let ((.def_515 (<= b.y__AT2 0.0 )))
(let ((.def_532 (or .def_515 .def_531)))
(let ((.def_490 (<= 0.0 b.y__AT2)))
(let ((.def_529 (not .def_490)))
(let ((.def_505 (<= 0.0 .def_504)))
(let ((.def_530 (or .def_505 .def_529)))
(let ((.def_533 (and .def_530 .def_532)))
(let ((.def_527 (or .def_524 .def_526)))
(let ((.def_528 (not .def_527)))
(let ((.def_534 (or .def_528 .def_533)))
(let ((.def_519 (not .def_505)))
(let ((.def_520 (or .def_490 .def_519)))
(let ((.def_516 (not .def_515)))
(let ((.def_518 (or .def_516 .def_517)))
(let ((.def_521 (and .def_518 .def_520)))
(let ((.def_513 (or .def_510 .def_512)))
(let ((.def_514 (not .def_513)))
(let ((.def_522 (or .def_514 .def_521)))
(let ((.def_535 (and .def_522 .def_534)))
(let ((.def_506 (and .def_490 .def_505)))
(let ((.def_536 (and .def_506 .def_535)))
(let ((.def_540 (and .def_536 .def_539)))
(let ((.def_550 (and .def_540 .def_549)))
(let ((.def_53 (<= g__AT0 10.0 )))
(let ((.def_52 (<= 8.0 g__AT0)))
(let ((.def_54 (and .def_52 .def_53)))
(let ((.def_551 (and .def_54 .def_550)))
(let ((.def_61 (<= speed_loss__AT0 (/ 1 2))))
(let ((.def_58 (<= (/ 1 10) speed_loss__AT0)))
(let ((.def_62 (and .def_58 .def_61)))
(let ((.def_552 (and .def_62 .def_551)))
(let ((.def_183 (not b.counter.0__AT1)))
(let ((.def_494 (or b.counter.1__AT1 .def_183)))
(let ((.def_178 (not b.counter.2__AT1)))
(let ((.def_495 (or .def_178 .def_494)))
(let ((.def_496 (or b.counter.3__AT1 .def_495)))
(let ((.def_63 (and .def_54 .def_62)))
(let ((.def_491 (and .def_63 .def_490)))
(let ((.def_487 (not b.EVENT.0__AT2)))
(let ((.def_485 (not b.EVENT.1__AT2)))
(let ((.def_488 (or .def_485 .def_487)))
(let ((.def_382 (not b.counter.1__AT2)))
(let ((.def_4 (not b.counter.0__AT2)))
(let ((.def_478 (or .def_4 .def_382)))
(let ((.def_482 (or b.counter.3__AT2 .def_478)))
(let ((.def_479 (or b.counter.2__AT2 .def_478)))
(let ((.def_8 (not b.counter.2__AT2)))
(let ((.def_477 (or .def_4 .def_8)))
(let ((.def_480 (and .def_477 .def_479)))
(let ((.def_399 (not b.counter.3__AT2)))
(let ((.def_481 (or .def_399 .def_480)))
(let ((.def_483 (and .def_481 .def_482)))
(let ((.def_489 (and .def_483 .def_488)))
(let ((.def_492 (and .def_489 .def_491)))
(let ((.def_472 (<= 0.0 b.delta__AT1)))
(let ((.def_281 (not b.EVENT.0__AT1)))
(let ((.def_279 (not b.EVENT.1__AT1)))
(let ((.def_374 (and .def_279 .def_281)))
(let ((.def_375 (not .def_374)))
(let ((.def_473 (or .def_375 .def_472)))
(let ((.def_474 (or b.EVENT.1__AT1 .def_473)))
(let ((.def_421 (= b.counter.0__AT2 b.counter.0__AT1)))
(let ((.def_419 (= b.counter.1__AT2 b.counter.1__AT1)))
(let ((.def_417 (= b.counter.2__AT2 b.counter.2__AT1)))
(let ((.def_416 (= b.counter.3__AT2 b.counter.3__AT1)))
(let ((.def_418 (and .def_416 .def_417)))
(let ((.def_420 (and .def_418 .def_419)))
(let ((.def_422 (and .def_420 .def_421)))
(let ((.def_469 (or .def_375 .def_422)))
(let ((.def_470 (or b.EVENT.1__AT1 .def_469)))
(let ((.def_429 (= b.x__AT1 b.x__AT2)))
(let ((.def_426 (= b.y__AT1 b.y__AT2)))
(let ((.def_463 (and .def_426 .def_429)))
(let ((.def_355 (= b.speed_x__AT1 b.speed_x__AT2)))
(let ((.def_464 (and .def_355 .def_463)))
(let ((.def_415 (= b.speed_y__AT1 b.speed_y__AT2)))
(let ((.def_465 (and .def_415 .def_464)))
(let ((.def_460 (= b.delta__AT1 0.0 )))
(let ((.def_461 (and .def_374 .def_460)))
(let ((.def_462 (not .def_461)))
(let ((.def_466 (or .def_462 .def_465)))
(let ((.def_467 (or b.EVENT.1__AT1 .def_466)))
(let ((.def_440 (= b.time__AT1 b.time__AT2)))
(let ((.def_452 (and .def_429 .def_440)))
(let ((.def_453 (and .def_426 .def_452)))
(let ((.def_454 (and .def_355 .def_453)))
(let ((.def_455 (and .def_415 .def_454)))
(let ((.def_456 (and .def_422 .def_455)))
(let ((.def_457 (or .def_279 .def_456)))
(let ((.def_443 (* (- 1.0) b.time__AT2)))
(let ((.def_446 (+ b.delta__AT1 .def_443)))
(let ((.def_447 (+ b.time__AT1 .def_446)))
(let ((.def_448 (= .def_447 0.0 )))
(let ((.def_449 (or .def_375 .def_448)))
(let ((.def_450 (or b.EVENT.1__AT1 .def_449)))
(let ((.def_441 (or .def_374 .def_440)))
(let ((.def_442 (or b.EVENT.1__AT1 .def_441)))
(let ((.def_451 (and .def_442 .def_450)))
(let ((.def_458 (and .def_451 .def_457)))
(let ((.def_436 (= .def_375 b.event_is_timed__AT2)))
(let ((.def_434 (= b.event_is_timed__AT1 .def_374)))
(let ((.def_437 (and .def_434 .def_436)))
(let ((.def_423 (and .def_415 .def_422)))
(let ((.def_377 (= b.y__AT1 0.0 )))
(let ((.def_305 (<= 0.0 b.speed_y__AT1)))
(let ((.def_306 (not .def_305)))
(let ((.def_378 (and .def_306 .def_377)))
(let ((.def_424 (or .def_378 .def_423)))
(let ((.def_391 (or .def_4 b.counter.0__AT1)))
(let ((.def_390 (or b.counter.0__AT2 .def_183)))
(let ((.def_392 (and .def_390 .def_391)))
(let ((.def_393 (and .def_382 .def_392)))
(let ((.def_394 (or b.counter.1__AT1 .def_393)))
(let ((.def_171 (not b.counter.1__AT1)))
(let ((.def_389 (or b.counter.1__AT2 .def_171)))
(let ((.def_395 (and .def_389 .def_394)))
(let ((.def_407 (and .def_8 .def_395)))
(let ((.def_408 (or b.counter.2__AT1 .def_407)))
(let ((.def_402 (and .def_183 .def_382)))
(let ((.def_403 (or b.counter.1__AT1 .def_402)))
(let ((.def_404 (and .def_389 .def_403)))
(let ((.def_405 (and b.counter.2__AT2 .def_404)))
(let ((.def_406 (or .def_178 .def_405)))
(let ((.def_409 (and .def_406 .def_408)))
(let ((.def_410 (and b.counter.3__AT2 .def_409)))
(let ((.def_411 (or b.counter.3__AT1 .def_410)))
(let ((.def_396 (and b.counter.2__AT2 .def_395)))
(let ((.def_397 (or b.counter.2__AT1 .def_396)))
(let ((.def_385 (or b.counter.1__AT2 b.counter.1__AT1)))
(let ((.def_383 (and b.counter.0__AT2 .def_382)))
(let ((.def_384 (or .def_171 .def_383)))
(let ((.def_386 (and .def_384 .def_385)))
(let ((.def_387 (and .def_8 .def_386)))
(let ((.def_388 (or .def_178 .def_387)))
(let ((.def_398 (and .def_388 .def_397)))
(let ((.def_400 (and .def_398 .def_399)))
(let ((.def_193 (not b.counter.3__AT1)))
(let ((.def_401 (or .def_193 .def_400)))
(let ((.def_412 (and .def_401 .def_411)))
(let ((.def_166 (* (- 1.0) speed_loss__AT0)))
(let ((.def_167 (+ 1.0 .def_166)))
(let ((.def_145 (* (- 1.0) b.speed_y__AT1)))
(let ((.def_380 (* .def_145 .def_167)))
(let ((.def_381 (= b.speed_y__AT2 .def_380)))
(let ((.def_413 (and .def_381 .def_412)))
(let ((.def_379 (not .def_378)))
(let ((.def_414 (or .def_379 .def_413)))
(let ((.def_425 (and .def_414 .def_424)))
(let ((.def_427 (and .def_425 .def_426)))
(let ((.def_428 (and .def_355 .def_427)))
(let ((.def_430 (and .def_428 .def_429)))
(let ((.def_431 (or .def_374 .def_430)))
(let ((.def_432 (or b.EVENT.1__AT1 .def_431)))
(let ((.def_365 (* (- 1.0) b.y__AT2)))
(let ((.def_296 (* b.speed_y__AT1 b.delta__AT1)))
(let ((.def_369 (+ .def_296 .def_365)))
(let ((.def_294 (* b.delta__AT1 b.delta__AT1)))
(let ((.def_295 (* .def_73 .def_294)))
(let ((.def_370 (+ .def_295 .def_369)))
(let ((.def_371 (+ b.y__AT1 .def_370)))
(let ((.def_372 (= .def_371 0.0 )))
(let ((.def_359 (* (- 1.0) b.speed_y__AT2)))
(let ((.def_357 (* .def_72 b.delta__AT1)))
(let ((.def_360 (+ .def_357 .def_359)))
(let ((.def_361 (+ b.speed_y__AT1 .def_360)))
(let ((.def_362 (= .def_361 0.0 )))
(let ((.def_350 (* (- 1.0) b.x__AT2)))
(let ((.def_348 (* b.speed_x__AT1 b.delta__AT1)))
(let ((.def_351 (+ .def_348 .def_350)))
(let ((.def_352 (+ b.x__AT1 .def_351)))
(let ((.def_353 (= .def_352 0.0 )))
(let ((.def_356 (and .def_353 .def_355)))
(let ((.def_363 (and .def_356 .def_362)))
(let ((.def_373 (and .def_363 .def_372)))
(let ((.def_376 (or .def_373 .def_375)))
(let ((.def_433 (and .def_376 .def_432)))
(let ((.def_438 (and .def_433 .def_437)))
(let ((.def_459 (and .def_438 .def_458)))
(let ((.def_468 (and .def_459 .def_467)))
(let ((.def_471 (and .def_468 .def_470)))
(let ((.def_475 (and .def_471 .def_474)))
(let ((.def_476 (and .def_279 .def_475)))
(let ((.def_493 (and .def_476 .def_492)))
(let ((.def_497 (and .def_493 .def_496)))
(let ((.def_301 (* .def_80 b.delta__AT1)))
(let ((.def_302 (+ b.speed_y__AT1 .def_301)))
(let ((.def_319 (<= .def_302 0.0 )))
(let ((.def_320 (not .def_319)))
(let ((.def_317 (<= b.speed_y__AT1 0.0 )))
(let ((.def_340 (or .def_317 .def_320)))
(let ((.def_303 (<= 0.0 .def_302)))
(let ((.def_339 (or .def_303 .def_306)))
(let ((.def_341 (and .def_339 .def_340)))
(let ((.def_342 (or .def_120 .def_341)))
(let ((.def_304 (not .def_303)))
(let ((.def_336 (or .def_304 .def_305)))
(let ((.def_318 (not .def_317)))
(let ((.def_335 (or .def_318 .def_319)))
(let ((.def_337 (and .def_335 .def_336)))
(let ((.def_338 (or .def_115 .def_337)))
(let ((.def_343 (and .def_338 .def_342)))
(let ((.def_332 (and .def_317 .def_319)))
(let ((.def_331 (and .def_303 .def_305)))
(let ((.def_333 (or .def_331 .def_332)))
(let ((.def_297 (+ .def_295 .def_296)))
(let ((.def_298 (+ b.y__AT1 .def_297)))
(let ((.def_311 (<= .def_298 0.0 )))
(let ((.def_325 (not .def_311)))
(let ((.def_309 (<= b.y__AT1 0.0 )))
(let ((.def_326 (or .def_309 .def_325)))
(let ((.def_284 (<= 0.0 b.y__AT1)))
(let ((.def_323 (not .def_284)))
(let ((.def_299 (<= 0.0 .def_298)))
(let ((.def_324 (or .def_299 .def_323)))
(let ((.def_327 (and .def_324 .def_326)))
(let ((.def_321 (or .def_318 .def_320)))
(let ((.def_322 (not .def_321)))
(let ((.def_328 (or .def_322 .def_327)))
(let ((.def_313 (not .def_299)))
(let ((.def_314 (or .def_284 .def_313)))
(let ((.def_310 (not .def_309)))
(let ((.def_312 (or .def_310 .def_311)))
(let ((.def_315 (and .def_312 .def_314)))
(let ((.def_307 (or .def_304 .def_306)))
(let ((.def_308 (not .def_307)))
(let ((.def_316 (or .def_308 .def_315)))
(let ((.def_329 (and .def_316 .def_328)))
(let ((.def_300 (and .def_284 .def_299)))
(let ((.def_330 (and .def_300 .def_329)))
(let ((.def_334 (and .def_330 .def_333)))
(let ((.def_344 (and .def_334 .def_343)))
(let ((.def_345 (and .def_54 .def_344)))
(let ((.def_346 (and .def_62 .def_345)))
(let ((.def_28 (not b.counter.0__AT0)))
(let ((.def_288 (or b.counter.1__AT0 .def_28)))
(let ((.def_31 (not b.counter.2__AT0)))
(let ((.def_289 (or .def_31 .def_288)))
(let ((.def_290 (or b.counter.3__AT0 .def_289)))
(let ((.def_285 (and .def_63 .def_284)))
(let ((.def_282 (or .def_279 .def_281)))
(let ((.def_272 (or .def_171 .def_183)))
(let ((.def_276 (or b.counter.3__AT1 .def_272)))
(let ((.def_273 (or b.counter.2__AT1 .def_272)))
(let ((.def_271 (or .def_178 .def_183)))
(let ((.def_274 (and .def_271 .def_273)))
(let ((.def_275 (or .def_193 .def_274)))
(let ((.def_277 (and .def_275 .def_276)))
(let ((.def_283 (and .def_277 .def_282)))
(let ((.def_286 (and .def_283 .def_285)))
(let ((.def_266 (<= 0.0 b.delta__AT0)))
(let ((.def_47 (not b.EVENT.0__AT0)))
(let ((.def_45 (not b.EVENT.1__AT0)))
(let ((.def_159 (and .def_45 .def_47)))
(let ((.def_160 (not .def_159)))
(let ((.def_267 (or .def_160 .def_266)))
(let ((.def_268 (or b.EVENT.1__AT0 .def_267)))
(let ((.def_215 (= b.counter.0__AT0 b.counter.0__AT1)))
(let ((.def_213 (= b.counter.1__AT0 b.counter.1__AT1)))
(let ((.def_211 (= b.counter.2__AT0 b.counter.2__AT1)))
(let ((.def_210 (= b.counter.3__AT0 b.counter.3__AT1)))
(let ((.def_212 (and .def_210 .def_211)))
(let ((.def_214 (and .def_212 .def_213)))
(let ((.def_216 (and .def_214 .def_215)))
(let ((.def_263 (or .def_160 .def_216)))
(let ((.def_264 (or b.EVENT.1__AT0 .def_263)))
(let ((.def_223 (= b.x__AT1 b.x__AT0)))
(let ((.def_220 (= b.y__AT0 b.y__AT1)))
(let ((.def_257 (and .def_220 .def_223)))
(let ((.def_141 (= b.speed_x__AT0 b.speed_x__AT1)))
(let ((.def_258 (and .def_141 .def_257)))
(let ((.def_209 (= b.speed_y__AT0 b.speed_y__AT1)))
(let ((.def_259 (and .def_209 .def_258)))
(let ((.def_254 (= b.delta__AT0 0.0 )))
(let ((.def_255 (and .def_159 .def_254)))
(let ((.def_256 (not .def_255)))
(let ((.def_260 (or .def_256 .def_259)))
(let ((.def_261 (or b.EVENT.1__AT0 .def_260)))
(let ((.def_234 (= b.time__AT0 b.time__AT1)))
(let ((.def_246 (and .def_223 .def_234)))
(let ((.def_247 (and .def_220 .def_246)))
(let ((.def_248 (and .def_141 .def_247)))
(let ((.def_249 (and .def_209 .def_248)))
(let ((.def_250 (and .def_216 .def_249)))
(let ((.def_251 (or .def_45 .def_250)))
(let ((.def_237 (* (- 1.0) b.time__AT1)))
(let ((.def_240 (+ b.delta__AT0 .def_237)))
(let ((.def_241 (+ b.time__AT0 .def_240)))
(let ((.def_242 (= .def_241 0.0 )))
(let ((.def_243 (or .def_160 .def_242)))
(let ((.def_244 (or b.EVENT.1__AT0 .def_243)))
(let ((.def_235 (or .def_159 .def_234)))
(let ((.def_236 (or b.EVENT.1__AT0 .def_235)))
(let ((.def_245 (and .def_236 .def_244)))
(let ((.def_252 (and .def_245 .def_251)))
(let ((.def_230 (= .def_160 b.event_is_timed__AT1)))
(let ((.def_228 (= b.event_is_timed__AT0 .def_159)))
(let ((.def_231 (and .def_228 .def_230)))
(let ((.def_217 (and .def_209 .def_216)))
(let ((.def_162 (= b.y__AT0 0.0 )))
(let ((.def_85 (<= 0.0 b.speed_y__AT0)))
(let ((.def_86 (not .def_85)))
(let ((.def_163 (and .def_86 .def_162)))
(let ((.def_218 (or .def_163 .def_217)))
(let ((.def_184 (or b.counter.0__AT0 .def_183)))
(let ((.def_182 (or .def_28 b.counter.0__AT1)))
(let ((.def_185 (and .def_182 .def_184)))
(let ((.def_186 (and .def_171 .def_185)))
(let ((.def_187 (or b.counter.1__AT0 .def_186)))
(let ((.def_26 (not b.counter.1__AT0)))
(let ((.def_181 (or .def_26 b.counter.1__AT1)))
(let ((.def_188 (and .def_181 .def_187)))
(let ((.def_201 (and .def_178 .def_188)))
(let ((.def_202 (or b.counter.2__AT0 .def_201)))
(let ((.def_196 (and .def_28 .def_171)))
(let ((.def_197 (or b.counter.1__AT0 .def_196)))
(let ((.def_198 (and .def_181 .def_197)))
(let ((.def_199 (and b.counter.2__AT1 .def_198)))
(let ((.def_200 (or .def_31 .def_199)))
(let ((.def_203 (and .def_200 .def_202)))
(let ((.def_204 (and b.counter.3__AT1 .def_203)))
(let ((.def_205 (or b.counter.3__AT0 .def_204)))
(let ((.def_189 (and b.counter.2__AT1 .def_188)))
(let ((.def_190 (or b.counter.2__AT0 .def_189)))
(let ((.def_175 (or b.counter.1__AT0 b.counter.1__AT1)))
(let ((.def_173 (and .def_171 b.counter.0__AT1)))
(let ((.def_174 (or .def_26 .def_173)))
(let ((.def_176 (and .def_174 .def_175)))
(let ((.def_179 (and .def_176 .def_178)))
(let ((.def_180 (or .def_31 .def_179)))
(let ((.def_191 (and .def_180 .def_190)))
(let ((.def_194 (and .def_191 .def_193)))
(let ((.def_34 (not b.counter.3__AT0)))
(let ((.def_195 (or .def_34 .def_194)))
(let ((.def_206 (and .def_195 .def_205)))
(let ((.def_165 (* (- 1.0) b.speed_y__AT0)))
(let ((.def_168 (* .def_165 .def_167)))
(let ((.def_169 (= b.speed_y__AT1 .def_168)))
(let ((.def_207 (and .def_169 .def_206)))
(let ((.def_164 (not .def_163)))
(let ((.def_208 (or .def_164 .def_207)))
(let ((.def_219 (and .def_208 .def_218)))
(let ((.def_221 (and .def_219 .def_220)))
(let ((.def_222 (and .def_141 .def_221)))
(let ((.def_224 (and .def_222 .def_223)))
(let ((.def_225 (or .def_159 .def_224)))
(let ((.def_226 (or b.EVENT.1__AT0 .def_225)))
(let ((.def_151 (* (- 1.0) b.y__AT1)))
(let ((.def_75 (* b.speed_y__AT0 b.delta__AT0)))
(let ((.def_154 (+ .def_75 .def_151)))
(let ((.def_70 (* b.delta__AT0 b.delta__AT0)))
(let ((.def_74 (* .def_70 .def_73)))
(let ((.def_155 (+ .def_74 .def_154)))
(let ((.def_156 (+ b.y__AT0 .def_155)))
(let ((.def_157 (= .def_156 0.0 )))
(let ((.def_143 (* b.delta__AT0 .def_72)))
(let ((.def_146 (+ .def_143 .def_145)))
(let ((.def_147 (+ b.speed_y__AT0 .def_146)))
(let ((.def_148 (= .def_147 0.0 )))
(let ((.def_133 (* (- 1.0) b.x__AT1)))
(let ((.def_137 (+ .def_133 b.x__AT0)))
(let ((.def_131 (* b.delta__AT0 b.speed_x__AT0)))
(let ((.def_138 (+ .def_131 .def_137)))
(let ((.def_139 (= .def_138 0.0 )))
(let ((.def_142 (and .def_139 .def_141)))
(let ((.def_149 (and .def_142 .def_148)))
(let ((.def_158 (and .def_149 .def_157)))
(let ((.def_161 (or .def_158 .def_160)))
(let ((.def_227 (and .def_161 .def_226)))
(let ((.def_232 (and .def_227 .def_231)))
(let ((.def_253 (and .def_232 .def_252)))
(let ((.def_262 (and .def_253 .def_261)))
(let ((.def_265 (and .def_262 .def_264)))
(let ((.def_269 (and .def_265 .def_268)))
(let ((.def_270 (and .def_45 .def_269)))
(let ((.def_287 (and .def_270 .def_286)))
(let ((.def_291 (and .def_287 .def_290)))
(let ((.def_81 (* b.delta__AT0 .def_80)))
(let ((.def_82 (+ b.speed_y__AT0 .def_81)))
(let ((.def_99 (<= .def_82 0.0 )))
(let ((.def_100 (not .def_99)))
(let ((.def_97 (<= b.speed_y__AT0 0.0 )))
(let ((.def_122 (or .def_97 .def_100)))
(let ((.def_83 (<= 0.0 .def_82)))
(let ((.def_121 (or .def_83 .def_86)))
(let ((.def_123 (and .def_121 .def_122)))
(let ((.def_124 (or .def_120 .def_123)))
(let ((.def_84 (not .def_83)))
(let ((.def_117 (or .def_84 .def_85)))
(let ((.def_98 (not .def_97)))
(let ((.def_116 (or .def_98 .def_99)))
(let ((.def_118 (and .def_116 .def_117)))
(let ((.def_119 (or .def_115 .def_118)))
(let ((.def_125 (and .def_119 .def_124)))
(let ((.def_112 (and .def_97 .def_99)))
(let ((.def_111 (and .def_83 .def_85)))
(let ((.def_113 (or .def_111 .def_112)))
(let ((.def_76 (+ .def_74 .def_75)))
(let ((.def_77 (+ b.y__AT0 .def_76)))
(let ((.def_91 (<= .def_77 0.0 )))
(let ((.def_105 (not .def_91)))
(let ((.def_89 (<= b.y__AT0 0.0 )))
(let ((.def_106 (or .def_89 .def_105)))
(let ((.def_64 (<= 0.0 b.y__AT0)))
(let ((.def_103 (not .def_64)))
(let ((.def_78 (<= 0.0 .def_77)))
(let ((.def_104 (or .def_78 .def_103)))
(let ((.def_107 (and .def_104 .def_106)))
(let ((.def_101 (or .def_98 .def_100)))
(let ((.def_102 (not .def_101)))
(let ((.def_108 (or .def_102 .def_107)))
(let ((.def_93 (not .def_78)))
(let ((.def_94 (or .def_64 .def_93)))
(let ((.def_90 (not .def_89)))
(let ((.def_92 (or .def_90 .def_91)))
(let ((.def_95 (and .def_92 .def_94)))
(let ((.def_87 (or .def_84 .def_86)))
(let ((.def_88 (not .def_87)))
(let ((.def_96 (or .def_88 .def_95)))
(let ((.def_109 (and .def_96 .def_108)))
(let ((.def_79 (and .def_64 .def_78)))
(let ((.def_110 (and .def_79 .def_109)))
(let ((.def_114 (and .def_110 .def_113)))
(let ((.def_126 (and .def_114 .def_125)))
(let ((.def_127 (and .def_54 .def_126)))
(let ((.def_128 (and .def_62 .def_127)))
(let ((.def_65 (and .def_63 .def_64)))
(let ((.def_48 (or .def_45 .def_47)))
(let ((.def_38 (or .def_26 .def_28)))
(let ((.def_42 (or b.counter.3__AT0 .def_38)))
(let ((.def_39 (or b.counter.2__AT0 .def_38)))
(let ((.def_37 (or .def_28 .def_31)))
(let ((.def_40 (and .def_37 .def_39)))
(let ((.def_41 (or .def_34 .def_40)))
(let ((.def_43 (and .def_41 .def_42)))
(let ((.def_49 (and .def_43 .def_48)))
(let ((.def_66 (and .def_49 .def_65)))
(let ((.def_29 (and .def_26 .def_28)))
(let ((.def_32 (and .def_29 .def_31)))
(let ((.def_35 (and .def_32 .def_34)))
(let ((.def_23 (= b.speed_y__AT0 0.0 )))
(let ((.def_20 (= b.y__AT0 10.0 )))
(let ((.def_15 (= b.time__AT0 0.0 )))
(let ((.def_17 (and .def_15 b.event_is_timed__AT0)))
(let ((.def_21 (and .def_17 .def_20)))
(let ((.def_24 (and .def_21 .def_23)))
(let ((.def_36 (and .def_24 .def_35)))
(let ((.def_67 (and .def_36 .def_66)))
(let ((.def_6 (or .def_4 b.counter.1__AT2)))
(let ((.def_9 (or .def_6 .def_8)))
(let ((.def_11 (or .def_9 b.counter.3__AT2)))
(let ((.def_12 (not .def_11)))
(let ((.def_68 (and .def_12 .def_67)))
(let ((.def_129 (and .def_68 .def_128)))
(let ((.def_292 (and .def_129 .def_291)))
(let ((.def_347 (and .def_292 .def_346)))
(let ((.def_498 (and .def_347 .def_497)))
(let ((.def_553 (and .def_498 .def_552)))
.def_553))))))))))))))))))))))))))))))))))))))))))))))))))))))))))))))))))))))))))))))))))))))))))))))))))))))))))))))))))))))))))))))))))))))))))))))))))))))))))))))))))))))))))))))))))))))))))))))))))))))))))))))))))))))))))))))))))))))))))))))))))))))))))))))))))))))))))))))))))))))))))))))))))))))))))))))))))))))))))))))))))))))))))))))))))))))))))))))))))))))))))))))))))))))))))))))))))))))))))))))))))))))))))))))))))))))))))))))))))))))))))))))))))))))))))))))))))))))))))))))))))))))))))))
(check-sat)
(exit)
